
Log started (V11.0.0) Mon Apr 14 18:06:54 2008

Tried aggregator 1 time.
Reduced MIP has 550 rows, 25001 columns, and 50050 nonzeros.
Presolve time =    0.19 sec.
Clique table members: 500.
MIP emphasis: balance optimality and feasibility.
MIP search method: dynamic search.
Parallel mode: none, using 1 thread.
Root relaxation solution time =    1.00 sec.

        Nodes                                         Cuts/
   Node  Left     Objective  IInf  Best Integer     Best Node    ItCnt     Gap

*     0+    0                        24442.0000       25.8322     1353   99.89%
*     0+    0                           31.0000       25.8322     1353   16.67%
      0     0       26.0000    70       31.0000      Fract: 6     1365   16.13%
*     0+    0                           30.0000       26.0000     1365   13.33%
      0     0       26.0000    78       30.0000   Impl Bds: 1     1387   13.33%
*     0+    0                           29.0000       26.0000     1387   10.34%
*     0+    0                           28.0000       26.0000     1387    7.14%

Repeating presolve.
Tried aggregator 1 time.
MIP Presolve eliminated 0 rows and 18215 columns.
Reduced MIP has 550 rows, 6786 columns, and 13620 nonzeros.
Tried aggregator 1 time.
Represolve time =    0.39 sec.
Clique table members: 1063.
MIP emphasis: balance optimality and feasibility.
MIP search method: dynamic search.
Parallel mode: none, using 1 thread.
Root relaxation solution time =    0.20 sec.

        Nodes                                         Cuts/
   Node  Left     Objective  IInf  Best Integer     Best Node    ItCnt     Gap

      0     0       26.0000    92       28.0000       26.0000      928    7.14%
      0     2       26.0000    92       28.0000       26.0000      928    7.14%
    100    99       27.0000    52       28.0000       26.0000     4947    7.14%
    200   191       27.0000    69       28.0000       26.0000    10266    7.14%
    300   263       27.0000    54       28.0000       26.0000    24219    7.14%
    400   327       27.0000    53       28.0000       26.0000    38842    7.14%
    500   406       27.0000    69       28.0000       26.0000    49869    7.14%
*   524+  277                           27.0000       26.0000    54171    3.70%

Cover cuts applied:  111
Mixed integer rounding cuts applied:  25
Zero-half cuts applied:  1
Gomory fractional cuts applied:  7

Solution pool: 6 solutions saved.

MIP - Integer optimal solution:  Objective = 2.7000000000e+001
Solution time =   37.61 sec.  Iterations = 59420  Nodes = 531 (268)


Incumbent solution
Variable Name           Solution Value
Cmax                         27.000000
X_1_46                        1.000000
X_2_16                        1.000000
X_3_23                        1.000000
X_4_32                        1.000000
X_5_42                        1.000000
X_6_9                         1.000000
X_7_14                        1.000000
X_8_50                        1.000000
X_9_5                         1.000000
X_10_9                        1.000000
X_11_50                       1.000000
X_12_44                       1.000000
X_13_23                       1.000000
X_14_5                        1.000000
X_15_6                        1.000000
X_16_20                       1.000000
X_17_37                       1.000000
X_18_18                       1.000000
X_19_28                       1.000000
X_20_31                       1.000000
X_21_1                        1.000000
X_22_18                       1.000000
X_23_27                       1.000000
X_24_16                       1.000000
X_25_39                       1.000000
X_26_14                       1.000000
X_27_37                       1.000000
X_28_15                       1.000000
X_29_13                       1.000000
X_30_29                       1.000000
X_31_20                       1.000000
X_32_6                        1.000000
X_33_30                       1.000000
X_34_33                       1.000000
X_35_31                       1.000000
X_36_17                       1.000000
X_37_20                       1.000000
X_38_41                       1.000000
X_39_14                       1.000000
X_40_26                       1.000000
X_41_22                       1.000000
X_42_21                       1.000000
X_43_30                       1.000000
X_44_31                       1.000000
X_45_30                       1.000000
X_46_14                       1.000000
X_47_34                       1.000000
X_48_2                        1.000000
X_49_1                        1.000000
X_50_34                       1.000000
X_51_46                       1.000000
X_52_38                       1.000000
X_53_15                       1.000000
X_54_29                       1.000000
X_55_34                       1.000000
X_56_26                       1.000000
X_57_26                       1.000000
X_58_3                        1.000000
X_59_10                       1.000000
X_60_43                       1.000000
X_61_19                       1.000000
X_62_24                       1.000000
X_63_11                       1.000000
X_64_46                       1.000000
X_65_50                       1.000000
X_66_13                       1.000000
X_67_30                       1.000000
X_68_28                       1.000000
X_69_24                       1.000000
X_70_26                       1.000000
X_71_43                       1.000000
X_72_8                        1.000000
X_73_42                       1.000000
X_74_38                       1.000000
X_75_36                       1.000000
X_76_37                       1.000000
X_77_19                       1.000000
X_78_49                       1.000000
X_79_47                       1.000000
X_80_6                        1.000000
X_81_42                       1.000000
X_82_35                       1.000000
X_83_28                       1.000000
X_84_30                       1.000000
X_85_47                       1.000000
X_86_43                       1.000000
X_87_36                       1.000000
X_88_49                       1.000000
X_89_8                        1.000000
X_90_35                       1.000000
X_91_28                       1.000000
X_92_19                       1.000000
X_93_48                       1.000000
X_94_38                       1.000000
X_95_16                       1.000000
X_96_25                       1.000000
X_97_46                       1.000000
X_98_24                       1.000000
X_99_49                       1.000000
X_100_14                      1.000000
X_101_27                      1.000000
X_102_8                       1.000000
X_103_26                      1.000000
X_104_3                       1.000000
X_105_26                      1.000000
X_106_14                      1.000000
X_107_10                      1.000000
X_108_14                      1.000000
X_109_21                      1.000000
X_110_2                       1.000000
X_111_40                      1.000000
X_112_43                      1.000000
X_113_37                      1.000000
X_114_19                      1.000000
X_115_37                      1.000000
X_116_12                      1.000000
X_117_12                      1.000000
X_118_23                      1.000000
X_119_8                       1.000000
X_120_4                       1.000000
X_121_33                      1.000000
X_122_44                      1.000000
X_123_19                      1.000000
X_124_4                       1.000000
X_125_21                      1.000000
X_126_42                      1.000000
X_127_34                      1.000000
X_128_43                      1.000000
X_129_32                      1.000000
X_130_40                      1.000000
X_131_6                       1.000000
X_132_22                      1.000000
X_133_4                       1.000000
X_134_40                      1.000000
X_135_10                      1.000000
X_136_11                      1.000000
X_137_4                       1.000000
X_138_14                      1.000000
X_139_50                      1.000000
X_140_14                      1.000000
X_141_5                       1.000000
X_142_36                      1.000000
X_143_36                      1.000000
X_144_47                      1.000000
X_145_13                      1.000000
X_146_50                      1.000000
X_147_41                      1.000000
X_148_11                      1.000000
X_149_25                      1.000000
X_150_36                      1.000000
X_151_7                       1.000000
X_152_27                      1.000000
X_153_40                      1.000000
X_154_41                      1.000000
X_155_26                      1.000000
X_156_7                       1.000000
X_157_12                      1.000000
X_158_37                      1.000000
X_159_26                      1.000000
X_160_12                      1.000000
X_161_27                      1.000000
X_162_40                      1.000000
X_163_34                      1.000000
X_164_23                      1.000000
X_165_12                      1.000000
X_166_35                      1.000000
X_167_46                      1.000000
X_168_20                      1.000000
X_169_18                      1.000000
X_170_21                      1.000000
X_171_1                       1.000000
X_172_4                       1.000000
X_173_16                      1.000000
X_174_49                      1.000000
X_175_6                       1.000000
X_176_43                      1.000000
X_177_3                       1.000000
X_178_44                      1.000000
X_179_15                      1.000000
X_180_45                      1.000000
X_181_38                      1.000000
X_182_9                       1.000000
X_183_48                      1.000000
X_184_32                      1.000000
X_185_23                      1.000000
X_186_2                       1.000000
X_187_41                      1.000000
X_188_6                       1.000000
X_189_4                       1.000000
X_190_13                      1.000000
X_191_23                      1.000000
X_192_43                      1.000000
X_193_22                      1.000000
X_194_7                       1.000000
X_195_40                      1.000000
X_196_36                      1.000000
X_197_30                      1.000000
X_198_41                      1.000000
X_199_36                      1.000000
X_200_26                      1.000000
X_201_4                       1.000000
X_202_42                      1.000000
X_203_13                      1.000000
X_204_38                      1.000000
X_205_15                      1.000000
X_206_9                       1.000000
X_207_42                      1.000000
X_208_40                      1.000000
X_209_22                      1.000000
X_210_17                      1.000000
X_211_39                      1.000000
X_212_12                      1.000000
X_213_9                       1.000000
X_214_19                      1.000000
X_215_49                      1.000000
X_216_21                      1.000000
X_217_35                      1.000000
X_218_50                      1.000000
X_219_15                      1.000000
X_220_4                       1.000000
X_221_38                      1.000000
X_222_2                       1.000000
X_223_49                      1.000000
X_224_49                      1.000000
X_225_27                      1.000000
X_226_7                       1.000000
X_227_26                      1.000000
X_228_22                      1.000000
X_229_8                       1.000000
X_230_41                      1.000000
X_231_8                       1.000000
X_232_6                       1.000000
X_233_22                      1.000000
X_234_38                      1.000000
X_235_41                      1.000000
X_236_3                       1.000000
X_237_10                      1.000000
X_238_1                       1.000000
X_239_11                      1.000000
X_240_8                       1.000000
X_241_50                      1.000000
X_242_36                      1.000000
X_243_41                      1.000000
X_244_15                      1.000000
X_245_7                       1.000000
X_246_47                      1.000000
X_247_30                      1.000000
X_248_32                      1.000000
X_249_45                      1.000000
X_250_33                      1.000000
X_251_32                      1.000000
X_252_44                      1.000000
X_253_24                      1.000000
X_254_13                      1.000000
X_255_25                      1.000000
X_256_24                      1.000000
X_257_3                       1.000000
X_258_47                      1.000000
X_259_29                      1.000000
X_260_25                      1.000000
X_261_21                      1.000000
X_262_43                      1.000000
X_263_17                      1.000000
X_264_48                      1.000000
X_265_38                      1.000000
X_266_23                      1.000000
X_267_43                      1.000000
X_268_44                      1.000000
X_269_36                      1.000000
X_270_46                      1.000000
X_271_30                      1.000000
X_272_2                       1.000000
X_273_1                       1.000000
X_274_45                      1.000000
X_275_4                       1.000000
X_276_32                      1.000000
X_277_33                      1.000000
X_278_28                      1.000000
X_279_21                      1.000000
X_280_11                      1.000000
X_281_12                      1.000000
X_282_16                      1.000000
X_283_27                      1.000000
X_284_38                      1.000000
X_285_16                      1.000000
X_286_9                       1.000000
X_287_10                      1.000000
X_288_9                       1.000000
X_289_38                      1.000000
X_290_19                      1.000000
X_291_32                      1.000000
X_292_23                      1.000000
X_293_46                      1.000000
X_294_23                      1.000000
X_295_21                      1.000000
X_296_13                      1.000000
X_297_45                      1.000000
X_298_19                      1.000000
X_299_17                      1.000000
X_300_24                      1.000000
X_301_32                      1.000000
X_302_11                      1.000000
X_303_48                      1.000000
X_304_9                       1.000000
X_305_12                      1.000000
X_306_45                      1.000000
X_307_48                      1.000000
X_308_36                      1.000000
X_309_28                      1.000000
X_310_20                      1.000000
X_311_11                      1.000000
X_312_48                      1.000000
X_313_22                      1.000000
X_314_16                      1.000000
X_315_42                      1.000000
X_316_26                      1.000000
X_317_44                      1.000000
X_318_22                      1.000000
X_319_5                       1.000000
X_320_9                       1.000000
X_321_35                      1.000000
X_322_4                       1.000000
X_323_21                      1.000000
X_324_10                      1.000000
X_325_10                      1.000000
X_326_44                      1.000000
X_327_3                       1.000000
X_328_6                       1.000000
X_329_21                      1.000000
X_330_40                      1.000000
X_331_1                       1.000000
X_332_9                       1.000000
X_333_42                      1.000000
X_334_44                      1.000000
X_335_50                      1.000000
X_336_22                      1.000000
X_337_15                      1.000000
X_338_24                      1.000000
X_339_34                      1.000000
X_340_4                       1.000000
X_341_48                      1.000000
X_342_38                      1.000000
X_343_46                      1.000000
X_344_8                       1.000000
X_345_1                       1.000000
X_346_39                      1.000000
X_347_20                      1.000000
X_348_16                      1.000000
X_349_24                      1.000000
X_350_41                      1.000000
X_351_34                      1.000000
X_352_27                      1.000000
X_353_39                      1.000000
X_354_34                      1.000000
X_355_31                      1.000000
X_356_23                      1.000000
X_357_38                      1.000000
X_358_49                      1.000000
X_359_7                       1.000000
X_360_48                      1.000000
X_361_40                      1.000000
X_362_38                      1.000000
X_363_5                       1.000000
X_364_28                      1.000000
X_365_44                      1.000000
X_366_44                      1.000000
X_367_41                      1.000000
X_368_31                      1.000000
X_369_45                      1.000000
X_370_17                      1.000000
X_371_21                      1.000000
X_372_48                      1.000000
X_373_18                      1.000000
X_374_17                      1.000000
X_375_20                      1.000000
X_376_13                      1.000000
X_377_47                      1.000000
X_378_14                      1.000000
X_379_48                      1.000000
X_380_25                      1.000000
X_381_34                      1.000000
X_382_7                       1.000000
X_383_3                       1.000000
X_384_16                      1.000000
X_385_5                       1.000000
X_386_16                      1.000000
X_387_34                      1.000000
X_388_16                      1.000000
X_389_33                      1.000000
X_390_32                      1.000000
X_391_45                      1.000000
X_392_25                      1.000000
X_393_1                       1.000000
X_394_45                      1.000000
X_395_42                      1.000000
X_396_48                      1.000000
X_397_30                      1.000000
X_398_34                      1.000000
X_399_20                      1.000000
X_400_45                      1.000000
X_401_24                      1.000000
X_402_44                      1.000000
X_403_4                       1.000000
X_404_46                      1.000000
X_405_39                      1.000000
X_406_21                      1.000000
X_407_14                      1.000000
X_408_28                      1.000000
X_409_20                      1.000000
X_410_29                      1.000000
X_411_44                      1.000000
X_412_22                      1.000000
X_413_7                       1.000000
X_414_29                      1.000000
X_415_30                      1.000000
X_416_5                       1.000000
X_417_18                      1.000000
X_418_47                      1.000000
X_419_7                       1.000000
X_420_41                      1.000000
X_421_10                      1.000000
X_422_21                      1.000000
X_423_41                      1.000000
X_424_45                      1.000000
X_425_36                      1.000000
X_426_28                      1.000000
X_427_29                      1.000000
X_428_39                      1.000000
X_429_25                      1.000000
X_430_12                      1.000000
X_431_1                       1.000000
X_432_33                      1.000000
X_433_4                       1.000000
X_434_1                       1.000000
X_435_33                      1.000000
X_436_37                      1.000000
X_437_45                      1.000000
X_438_28                      1.000000
X_439_11                      1.000000
X_440_38                      1.000000
X_441_31                      1.000000
X_442_31                      1.000000
X_443_3                       1.000000
X_444_15                      1.000000
X_445_15                      1.000000
X_446_23                      1.000000
X_447_23                      1.000000
X_448_37                      1.000000
X_449_34                      1.000000
X_450_24                      1.000000
X_451_35                      1.000000
X_452_37                      1.000000
X_453_19                      1.000000
X_454_32                      1.000000
X_455_43                      1.000000
X_456_2                       1.000000
X_457_20                      1.000000
X_458_17                      1.000000
X_459_10                      1.000000
X_460_19                      1.000000
X_461_20                      1.000000
X_462_23                      1.000000
X_463_35                      1.000000
X_464_24                      1.000000
X_465_27                      1.000000
X_466_25                      1.000000
X_467_13                      1.000000
X_468_30                      1.000000
X_469_23                      1.000000
X_470_33                      1.000000
X_471_24                      1.000000
X_472_11                      1.000000
X_473_46                      1.000000
X_474_13                      1.000000
X_475_23                      1.000000
X_476_47                      1.000000
X_477_6                       1.000000
X_478_2                       1.000000
X_479_14                      1.000000
X_480_41                      1.000000
X_481_46                      1.000000
X_482_6                       1.000000
X_483_4                       1.000000
X_484_34                      1.000000
X_485_13                      1.000000
X_486_47                      1.000000
X_487_43                      1.000000
X_488_8                       1.000000
X_489_8                       1.000000
X_490_49                      1.000000
X_491_2                       1.000000
X_492_18                      1.000000
X_493_26                      1.000000
X_494_40                      1.000000
X_495_28                      1.000000
X_496_40                      1.000000
X_497_28                      1.000000
X_498_36                      1.000000
X_499_15                      1.000000
X_500_20                      1.000000
All other variables in the range 1-25001 are 0.
